number of jobs, number of machines, initial seed, upper bound and lower bound :
20           10   0000        0000        0000
processing times :
 25 83 22 8 75 59 37 76 46 19 32 56 55 35 91 91 38 12 87 50
 10 79 5 38 63 84 59 21 74 95 58 58 80 77 58 46 42 68 95 49
 13 78 71 93 90 54 54 53 36 42 13 4 16 30 72 13 53 3 47 68
 6 94 10 58 27 28 40 50 6 21 22 13 15 28 3 75 26 46 98 47
 16 54 74 69 72 83 79 33 7 30 30 74 77 51 8 18 47 94 99 17
 90 80 57 30 83 18 38 14 20 92 4 65 10 36 94 63 56 94 50 9
 46 28 11 89 65 45 67 39 84 55 85 64 21 37 54 71 21 5 11 35
 16 94 23 62 50 79 78 32 19 93 16 51 17 53 6 70 12 55 6 39
 90 5 89 40 72 69 14 32 97 39 42 38 88 88 34 65 20 61 19 76
 13 97 3 68 41 51 13 98 8 67 22 91 97 63 97 98 27 26 40 71
